34010 33257 32152 30948 30494 30213 29495 29020 28573 28234 27428 26994 26260 25808 25415 24863 24319 24109 23526 23219 22961 22870 22590 22075 21695 21205 20547 20341 20050 19770 19464 19352 18958 18516 18195 18102 17905 17709 17554 17386 17193 17008 16832 16588 16334 16164 15940 15821 15676 15525 15407 15224 15127 15010 14885 14768 14705 14602 14484 14371 14299 14118 14027 13932 13822 13744 13677 13622 13581 13502 13399 13309 13211 13137 13005 12928 12818 12774 12713 12640 12594 12517 12476 12393 12248 12117 12066 12024 11970 11902 11838 11755 11666 11661 11592 11552 11503 11462 11419 11376 11308 11274 11188 11167 11122 11105 11054 11022 10935 10935 10893 10879 10798 10771 10768 10753 10733 10716 10686 10643 10615 10578 10523 10471 10422 10393 10364 10344 10323 10277 10265 10234 10193 10171 10141 10129 10099 10073 10058 10016 10007 9967 9941 9911 9881 9848 9834 9783 9780 9760 9742 9721 9692 9664 9641 9625 9585 9579 9549 9530 9512 9497 9486 9466 9452 9428 9413 9389 9369 9359 9286 9286 9258 9222 9202 9189 9134 9123 9053 9013 9005 8914 8914 8894 8875 8874 8851 8830 8815 8800 8788 8755 8752 8738 8726 8713 8686 8647 8637 8620 8602 8600 8586 8563 8544 8516 8484 8413 8390 8371 8357 8342 8307 8307 8274 8249 8236 8227 8197 8155 8135 8109 8102 8077 8067 8062 8042 8034 8023 8014 7989 7984 7957 7941 7914 7895 7877 7872 7848 7840 7814 7804 7798 7788 7772 7761 7743 7739 7718 7664 7644 7619 7599 7599 7586 7581 7575 7568 7557 7539 7535 7524 7492 7475 7475 7462 7439 7403 7382 7366 7354 7346 7327 7323 7280 7273 7257 7252 7239 7234 7227 7219 7184 7155 7144 7142 7136 7130 7122 7119 7108 7096 7092 7075 7060 7060 7050 7037 7033 7027 7015 7011 7006 6992 6988 6950 6950 6950 6939 6939 6927 6921 6912 6912 6911 6872 6861 6859 6841 6831 6825 6818 6788 6778 6768 6765 6761 6754 6744 6738 6732 6720 6711 6707 6702 6694 6689 6673 6656 6642 6637 6602 6602 6602 6602 6592 6592 6581 6581 6576 6575 6572 6564 6546 6546 6537 6522 6522 6516 6516 6506 6506 6500 6488 6481 6464 6453 6450 6450 6444 6444 6441 6441 6437 6431 6431 6427 6424 6424 6417 6417 6413 6411 6411 6409 6409 6408 6395 6393 6380 6380 6379 6377 6373 6373 6373 6365 6358 6354 6347 6339 6333 6312 6300 6284 6263 6263 6247 6243 6239 6225 6225 6212 6210 6199 6197 6192 6190 6184 6180 6177 6176 6173 6168 6162 6158 6157 6153 6150 6146 6145 6140 6130 6127 6127 6124 6112 6112 6103 6097 6091 6077 6077 6066 6055 6050 6050 6047 6047 6047 6046 6046 6039 6039 6039 6039 6037 6037 6036 6035 6034 6034 6033 6032 6032 6027 6026 6009 6008 6003 6002 6002 5991 5977 5971 5971 5971 5971 5898 5898 5892 5892 5892 5886 5886 5873 5864 5864 5857 5857 5857 5857 5840 5840 5836 5836 5831 5827 5827 5827 5827 5825 5822 5822 5822 5821 5820 5818 5816 5816 5816 5815 5812 5812 5811 5807 5807 5805 5802 5802 5800 5798 5796 5794 5792 5792 5792 5792 5792 5789 5789 5787 5785 5785 5782 5782 5767 5767 5767 5765 5765 5751 5751 5751 5748 5748 5738 5720 5720 5720 5718 5718 5718 5718 5717 5717 5717 5712 5711 5711 5709 5709 5709 5709 5709 5709 5709 5709 5709 5701 5701 5701 5701 5701 5701 5701 5701 5701 5701 5701 5701 5701 5701 5701 5701 5701 5701 5701 5701 5701 5701 5701 5701 5701 5701 5701 5701 5701 5701 5701 5701 5701 5701 5701 5701 5701 5701 5701 5701 5701 5701 5701 5701 5701 5701 5701 5701 5701 5701 5701 5701 5701 5701 5701 5701 5701 5701 5701 5701 5701 5701 5701 5701 5701 5701 5701 5701 5701 5701 5701 5701 5701 5701 5701 5701 5701 5701 5701 5701 5701 5701 5701 5701 5701 5701 5701 5701 5701 5701 5701 5701 5701 5701 5701 5701 5701 5701 5701 5701 5701 5701 5701 5701 5701 5701 5701 5701 5701 5701 5701 5701 5701 5701 5701 5701 5701 5701 5701 5701 5701 5701 5701 5701 5701 5701 5701 5701 5701 5701 5701 5701 5701 5701 5701 5701 5701 5701 5701 5701 5701 5701 5701 5701 5701 5701 5701 5701 5701 5701 5701 5701 5701 5701 5701 5701 5701 5701 5701 5701 5701 5701 5701 5701 5701 5701 5701 5701 5701 5701 5701 5701 5701 5701 5701 5701 5701 5701 5701 5701 5701 5701 5701 5701 5701 5701 5701 5701 5701 5701 5701 5701 5701 5701 5701 5701 5701 5701 5701 5701 5701 5701 5701 5701 5701 5701 5701 5701 5701 5701 5701 5701 5701 5701 5701 5701 5701 5701 5701 5701 5701 5701 5701 5701 5701 5701 5701 5701 5701 5701 5701 5701 5701 5701 5701 5701 5701 5701 5701 5701 5701 5701 5701 5701 5701 5701 5701 5701 5701 5701 5701 5701 5701 5701 5701 5701 5701 5701 5701 5701 5701 5701 5701 5701 5701 5701 5701 5701 5701 5701 5701 5701 5701 5701 5701 5701 5701 5701 5701 5701 5701 5701 5701 5701 5701 5701 5701 5701 5701 5701 5701 5701 5701 5701 5701 5701 5701 5701 5701 5701 5701 5701 5701 5701 5701 5701 5701 5701 5701 5701 5701 5701 5701 5701 5701 5701 5701 5701 5701 5701 5701 5701 5701 5701 5701 5701 5701 5701 5701 5701 5701 5701 5701 5701 5701 5701 5701 5701 5701 5701 5701 5701 5701 5701 5701 5701 5701 5701 5701 5701 5701 5701 5701 5701 5701 5701 5701 5701 5701 5701 5701 5701 5701 5701 5701 5701 5701 5701 5701 5701 5701 5701 5701 5701 5701 5701 5701 5701 5701 5701 5701 5701 5701 5701 5701 5701 5701 5701 5701 5701 5701 5701 5701 5701 5701 5701 5701 5701 5701 5701 5701 5701 5701 5701 5701 5701 5701 5701 5701 5701 5701 5701 5701 5701 5701 5701 5701 5701 5701 5701 5701 5701 5701 5701 5701 5701 5701 5701 5701 5701 5701 5701 5701 5701 5701 5701 5701 5701 5701 5701 5701 5701 5701 5701 5701 5701 5701 5701 5701 5701 5701 5701 5701 5701 5701 5701 5701 5701 5701 5701 5701 5701 5701 5701 5701 5701 5701 5701 5701 5701 5701 5701 5701 5701 5701 5701 5701 5701 5701 5701 5701 5701 5701 5701 5701 5701 5701 5701 5701 5701 5701 5701 5701 5701 5701 5701 5701 5701 5701 5701 5701 5701 5701 5701 5701 5701 5701 5701 5701 5701 5701 5701 5701 5701 5701 5701 5701 5701 5701 5701 5701 5701 5701 5701 5701 5701 5701 5701 5701 5701 5701 5701 5701 5701 5701 5701 5701 5701 5701 5701 5701 5701 5701 5701 5701 5701 5701 5701 5701 5701 5701 5701 5701 5701 5701 5701 5701 5701 5701 5701 5701 5701 5701 5701 5701 5701 5701 5701 5701 5701 5701 5701 5701 5701 5701 5701 5701 5701 5701 5701 5701 5701 5701 5701 5701 5701 5701 5701 5701 5701 5701 5701 5701 5701 5701 5701 5701 5701 5701 5701 5701 5701 5701 5701 5701 5701 5701 5701 5701 5701 5701 5701 5701 5701 5701 5701 5701 5701 5701 5701 5701 5701 5701 5701 5701 5701 5701 5701 5701 5701 5701 5701 5701 5701 5701 5701 5701 5701 5701 5701 5701 5701 5701 5701 5701 5701 5701 5701 5701 5701 5701 5701 5701 5701 5701 5701 5701 5701 5701 5701 5701 5701 5701 5701 5701 5701 5701 5701 5701 5701 5701 5701 5701 5701 5701 5701 5701 5701 5701 5701 5701 5701 5701 5701 5701 5701 5701 5701 5701 5701 5701 5701 5701 5701 5701 5701 5701 5701 5701 5701 5701 5701 5701 5701 5701 5701 5701 5701 5701 5701 5701 5701 5701 5701 5701 5701 5701 5701 5701 5701 5701 5701 5701 5701 5701 5701 5701 5701 5701 5701 5701 5701 5701 5701 5701 5701 5701 5701 5701 5701 5701 5701 5701 5701 5701 5701 5701 5701 5701 5701 5701 5701 5701 5701 5701 5701 5701 5701 5701 5701 5701 5701 5701 5701 5701 5701 5701 5701 5701 5701 5701 5701 5701 5701 5701 5701 5701 5701 5701 5701 5701 5701 5701 5701 5701 5701 5701 5701 5701 5701 5701 5701 5701 5701 5701 5701 5701 5701 5701 5701 5701 5701 5701 5701 5701 5701 5701 5701 5701 5701 5701 5701 5701 5701 5701 5701 5701 5701 5701 5701 5701 5701 5701 5701 5701 5701 5701 5701 5701 5701 5701 5701 5701 5701 5701 5701 5701 5701 5701 5701 5701 5701 5701 5701 5701 5701 5701 5701 5701 5701 5701 5701 5701 5701 5701 5701 5701 5701 5701 5701 5701 5701 5701 5701 5701 5701 5701 5701 5701 5701 5701 5701 5701 5701 5701 5701 5701 5701 5701 5701 5701 5701 5701 5701 5701 5701 5701 5701 5701 5701 5701 5701 5701 5701 5701 5701 5701 5701 5701 5701 5701 5701 5701 5701 5701 5701 5701 5701 5701 5701 5701 5701 5701 5701 5701 5701 5701 5701 5701 5701 5701 5701 5701 5701 5701 5701 5701 5701 5701 5701 5701 5701 5701 5701 5701 5701 5701 5701 5701 5701 5701 5701 5701 5701 5701 5701 5701 5701 5701 5701 5701 5701 5701 5701 5701 5701 5701 5701 5701 5701 5701 5701 5701 5701 5701 5701 5701 5701 5701 5701 5701 5701 5701 5701 5701 5701 5701 5701 5701 5701 5701 5701 5701 5701 5701 5701 5701 5701 5701 5701 5701 5701 5701 5701 5701 5701 5701 5701 5701 5701 5701 5701 5701 5701 5701 5701 5701 5701 5701 5701 5701 5701 5701 5701 5701 5701 5701 5701 5701 5701 5701 5701 5701 5701 5701 5701 5701 5701 5701 5701 5701 5701 5701 5701 5701 5701 5701 5701 5701 5701 5701 5701 5701 5701 5701 5701 5701 5701 5701 5701 5701 5701 5701 5701 5701 5701 5701 5701 5701 5701 5701 5701 5701 5701 5701 5701 5701 5701 5701 5701 5701 5701 5701 5701 5701 5701 5701 5701 5701 5701 5701 5701 5701 5701 5701 5701 5701 5701 5701 5701 5701 5701 5701 5701 5701 5701 5701 5701 5701 5701 5701 5701 5701 5701 5701 5701 5701 5701 5701 5701 5701 5701 5701 5701 5701 5701 5701 5701 5701 5701 5701 5701 5701 5701 5701 5701 5701 5701 5701 5701 5701 5701 5701 5701 5701 5701 5701 5701 5701 5701 5701 5701 5701 5701 5701 5701 5701 5701 5701 5701 5701 5701 5701 5701 5701 5701 5701 5701 5701 5701 5701 5701 5701 5701 5701 5701 5701 5701 5701 5701 5701 5701 5701 5701 5701 5701 5701 5701 5701 5701 5701 5701 5701 5701 5701 5701 5701 5701 5701 5701 5701 5701 5701 5701 5701 5701 5701 5701 5701 5701 5701 5701 5701 5701 5701 5701 5701 5701 5701 5701 5701 5701 5701 5701 5701 5701 5701 5701 5701 5701 5701 5701 5701 5701 5701 5701 5701 5701 5701 5701 5701 5701 5701 5701 5701 5701 5701 5701 5701 5701 5701 5701 5701 5701 5701 5701 5701 5701 5701 5701 5701 5701 5701 5701 5701 5701 5701 5701 5701 5701 5701 5701 5701 5701 5701 5701 5701 5701 5701 5701 5701 5701 5701 5701 5701 5701 5701 5701 5701 5701 5701 5701 5701 5701 5701 5701 5701 5701 5701 5701 5701 5701 5701 5701 5701 5701 5701 5701 5701 5701 5701 5701 5701 5701 5701 5701 5701 5701 5701 5701 5701 5701 5701 5701 5701 5701 5701 5701 5701 5701 5701 5701 5701 5701 5701 5701 5701 5701 5701 5701 5701 5701 5701 5701 5701 5701 5701 5701 5701 5701 5701 5701 5701 5701 5701 5701 5701 5701 5701 5701 5701 5701 5701 5701 5701 5701 5701 5701 5701 5701 5701 5701 5701 5701 5701 5701 5701 5701 5701 5701 5701 5701 5701 5701 5701 5701 5701 5701 5701 5701 5701 5701 5701 5701 5701 5701 5701 5701 5701 5701 5701 5701 5701 5701 5701 5701 5701 5701 5701 5701 5701 5701 5701 5701 5701 5701 5701 5701 5701 5701 5701 5701 5701 5701 5701 5701 5701 5701 5701 5701 5701 5701 5701 5701 5701 5701 5701 5701 5701 5701 5701 
36911 35321 34272 33430 32700 31973 31308 30642 30081 29477 28895 28288 27688 27139 26631 26116 25662 25233 24800 24418 24092 23727 23340 23018 22691 22253 21791 21318 20921 20524 20194 19871 19568 19284 18909 18596 18383 18161 17979 17784 17575 17381 17200 17019 16822 16623 16419 16221 16023 15853 15710 15571 15424 15283 15156 15016 14894 14795 14706 14610 14486 14376 14265 14155 14038 13926 13837 13757 13695 13631 13565 13493 13412 13324 13236 13152 13067 12961 12858 12776 12708 12643 12585 12535 12478 12413 12340 12225 12116 12048 11982 11906 11835 11786 11707 11635 11598 11546 11506 11465 11421 11376 11327 11273 11225 11179 11141 11104 11065 11028 10991 10955 10919 10892 10868 10821 10775 10764 10742 10715 10682 10646 10613 10577 10537 10494 10453 10420 10383 10355 10321 10294 10267 10234 10197 10178 10163 10131 10102 10080 10058 10035 10009 9982 9962 9933 9885 9848 9836 9819 9786 9770 9746 9716 9694 9670 9647 9622 9594 9572 9550 9533 9518 9504 9488 9473 9456 9434 9416 9396 9380 9364 9349 9293 9257 9240 9216 9180 9157 9125 9115 9035 9008 8987 8920 8896 8883 8872 8855 8831 8815 8805 8793 8780 8752 8739 8729 8716 8703 8686 8646 8627 8615 8600 8592 8570 8555 8519 8503 8469 8411 8386 8364 8343 8326 8305 8275 8258 8240 8233 8219 8180 8143 8113 8105 8097 8081 8069 8050 8040 8029 8012 7994 7976 7958 7940 7922 7908 7894 7882 7868 7849 7830 7816 7802 7788 7778 7768 7754 7737 7719 7700 7657 7612 7598 7598 7596 7584 7573 7565 7555 7540 7535 7531 7521 7507 7485 7472 7453 7438 7399 7379 7355 7340 7328 7322 7305 7274 7262 7254 7247 7235 7226 7219 7206 7178 7152 7142 7135 7129 7121 7117 7109 7097 7094 7086 7071 7059 7055 7047 7033 7030 7025 7017 7006 7000 6989 6978 6974 6949 6949 6942 6932 6921 6920 6911 6906 6897 6871 6850 6841 6832 6827 6818 6798 6774 6769 6764 6761 6756 6747 6739 6728 6720 6713 6709 6705 6696 6685 6678 6663 6640 6636 6636 6632 6609 6601 6596 6593 6591 6582 6580 6576 6572 6563 6563 6550 6548 6540 6527 6521 6520 6515 6513 6503 6493 6481 6469 6452 6451 6449 6447 6443 6440 6440 6440 6438 6434 6426 6424 6423 6422 6418 6414 6410 6410 6410 6408 6407 6399 6393 6390 6379 6378 6377 6376 6374 6372 6372 6368 6359 6347 6341 6335 6323 6306 6290 6266 6262 6261 6246 6238 6226 6224 6215 6211 6198 6197 6195 6189 6183 6183 6179 6176 6172 6168 6168 6165 6157 6153 6152 6150 6144 6144 6143 6135 6127 6126 6123 6113 6105 6099 6095 6090 6078 6070 6064 6052 6049 6049 6046 6046 6046 6046 6045 6045 6038 6038 6038 6036 6036 6035 6034 6033 6032 6032 6031 6031 6026 6020 6011 6002 6002 6002 6001 5994 5979 5972 5970 5970 5963 5897 5896 5891 5891 5891 5885 5884 5872 5863 5863 5860 5856 5856 5856 5844 5839 5835 5835 5830 5827 5826 5826 5826 5826 5822 5821 5821 5821 5819 5816 5815 5815 5815 5814 5811 5810 5810 5806 5806 5804 5801 5799 5799 5797 5794 5793 5792 5792 5791 5791 5791 5788 5787 5785 5784 5781 5781 5781 5768 5765 5764 5764 5764 5751 5750 5747 5747 5747 5737 5720 5719 5718 5718 5717 5717 5717 5716 5716 5716 5711 5710 5710 5709 5709 5709 5709 5709 5709 5708 5708 5708 5701 5701 5701 5701 5701 5701 5701 5701 5701 5701 5701 5701 5701 5701 5701 5701 5701 5701 5701 5701 5701 5701 5701 5701 5701 5701 5701 5701 5701 5701 5701 5701 5701 5701 5701 5701 5701 5701 5701 5701 5701 5701 5701 5701 5701 5701 5701 5701 5701 5701 5701 5701 5701 5701 5701 5701 5701 5701 5701 5701 5701 5701 5701 5701 5701 5701 5701 5701 5701 5701 5701 5701 5701 5701 5701 5701 5701 5701 5701 5701 5701 5701 5701 5701 5701 5701 5701 5701 5701 5701 5701 5701 5701 5701 5701 5701 5701 5701 5701 5701 5701 5701 5701 5701 5701 5701 5701 5701 5701 5701 5701 5701 5701 5701 5701 5701 5701 5701 5701 5701 5701 5701 5701 5701 5701 5701 5701 5701 5701 5701 5701 5701 5701 5701 5701 5701 5701 5701 5701 5701 5701 5701 5701 5701 5701 5701 5701 5701 5701 5701 5701 5701 5701 5701 5701 5701 5701 5701 5701 5701 5701 5701 5701 5701 5701 5701 5701 5701 5701 5701 5701 5701 5701 5701 5701 5701 5701 5701 5701 5701 5701 5701 5701 5701 5701 5701 5701 5701 5701 5701 5701 5701 5701 5701 5701 5701 5701 5701 5701 5701 5701 5701 5701 5701 5701 5701 5701 5701 5701 5701 5701 5701 5701 5701 5701 5701 5701 5701 5701 5701 5701 5701 5701 5701 5701 5701 5701 5701 5701 5701 5701 5701 5701 5701 5701 5701 5701 5701 5701 5701 5701 5701 5701 5701 5701 5701 5701 5701 5701 5701 5701 5701 5701 5701 5701 5701 5701 5701 5701 5701 5701 5701 5701 5701 5701 5701 5701 5701 5701 5701 5701 5701 5701 5701 5701 5701 5701 5701 5701 5701 5701 5701 5701 5701 5701 5701 5701 5701 5701 5701 5701 5701 5701 5701 5701 5701 5701 5701 5701 5701 5701 5701 5701 5701 5701 5701 5701 5701 5701 5701 5701 5701 5701 5701 5701 5701 5701 5701 5701 5701 5701 5701 5701 5701 5701 5701 5701 5701 5701 5701 5701 5701 5701 5701 5701 5701 5701 5701 5701 5701 5701 5701 5701 5701 5701 5701 5701 5701 5701 5701 5701 5701 5701 5701 5701 5701 5701 5701 5701 5701 5701 5701 5701 5701 5701 5701 5701 5701 5701 5701 5701 5701 5701 5701 5701 5701 5701 5701 5701 5701 5701 5701 5701 5701 5701 5701 5701 5701 5701 5701 5701 5701 5701 5701 5701 5701 5701 5701 5701 5701 5701 5701 5701 5701 5701 5701 5701 5701 5701 5701 5701 5701 5701 5701 5701 5701 5701 5701 5701 5701 5701 5701 5701 5701 5701 5701 5701 5701 5701 5701 5701 5701 5701 5701 5701 5701 5701 5701 5701 5701 5701 5701 5701 5701 5701 5701 5701 5701 5701 5701 5701 5701 5701 5701 5701 5701 5701 5701 5701 5701 5701 5701 5701 5701 5701 5701 5701 5701 5701 5701 5701 5701 5701 5701 5701 5701 5701 5701 5701 5701 5701 5701 5701 5701 5701 5701 5701 5701 5701 5701 5701 5701 5701 5701 5701 5701 5701 5701 5701 5701 5701 5701 5701 5701 5701 5701 5701 5701 5701 5701 5701 5701 5701 5701 5701 5701 5701 5701 5701 5701 5701 5701 5701 5701 5701 5701 5701 5701 5701 5701 5701 5701 5701 5701 5701 5701 5701 5701 5701 5701 5701 5701 5701 5701 5701 5701 5701 5701 5701 5701 5701 5701 5701 5701 5701 5701 5701 5701 5701 5701 5701 5701 5701 5701 5701 5701 5701 5701 5701 5701 5701 5701 5701 5701 5701 5701 5701 5701 5701 5701 5701 5701 5701 5701 5701 5701 5701 5701 5701 5701 5701 5701 5701 5701 5701 5701 5701 5701 5701 5701 5701 5701 5701 5701 5701 5701 5701 5701 5701 5701 5701 5701 5701 5701 5701 5701 5701 5701 5701 5701 5701 5701 5701 5701 5701 5701 5701 5701 5701 5701 5701 5701 5701 5701 5701 5701 5701 5701 5701 5701 5701 5701 5701 5701 5701 5701 5701 5701 5701 5701 5701 5701 5701 5701 5701 5701 5701 5701 5701 5701 5701 5701 5701 5701 5701 5701 5701 5701 5701 5701 5701 5701 5701 5701 5701 5701 5701 5701 5701 5701 5701 5701 5701 5701 5701 5701 5701 5701 5701 5701 5701 5701 5701 5701 5701 5701 5701 5701 5701 5701 5701 5701 5701 5701 5701 5701 5701 5701 5701 5701 5701 5701 5701 5701 5701 5701 5701 5701 5701 5701 5701 5701 5701 5701 5701 5701 5701 5701 5701 5701 5701 5701 5701 5701 5701 5701 5701 5701 5701 5701 5701 5701 5701 5701 5701 5701 5701 5701 5701 5701 5701 5701 5701 5701 5701 5701 5701 5701 5701 5701 5701 5701 5701 5701 5701 5701 5701 5701 5701 5701 5701 5701 5701 5701 5701 5701 5701 5701 5701 5701 5701 5701 5701 5701 5701 5701 5701 5701 5701 5701 5701 5701 5701 5701 5701 5701 5701 5701 5701 5701 5701 5701 5701 5701 5701 5701 5701 5701 5701 5701 5701 5701 5701 5701 5701 5701 5701 5701 5701 5701 5701 5701 5701 5701 5701 5701 5701 5701 5701 5701 5701 5701 5701 5701 5701 5701 5701 5701 5701 5701 5701 5701 5701 5701 5701 5701 5701 5701 5701 5701 5701 5701 5701 5701 5701 5701 5701 5701 5701 5701 5701 5701 5701 5701 5701 5701 5701 5701 5701 5701 5701 5701 5701 5701 5701 5701 5701 5701 5701 5701 5701 5701 5701 5701 5701 5701 5701 5701 5701 5701 5701 5701 5701 5701 5701 5701 5701 5701 5701 5701 5701 5701 5701 5701 5701 5701 5701 5701 5701 5701 5701 5701 5701 5701 5701 5701 5701 5701 5701 5701 5701 5701 5701 5701 5701 5701 5701 5701 5701 5701 5701 5701 5701 5701 5701 5701 5701 5701 5701 5701 5701 5701 5701 5701 5701 5701 5701 5701 5701 5701 5701 5701 5701 5701 5701 5701 5701 5701 5701 5701 5701 5701 5701 5701 5701 5701 5701 5701 5701 5701 5701 5701 5701 5701 5701 5701 5701 5701 5701 5701 5701 5701 5701 5701 5701 5701 5701 5701 5701 5701 5701 5701 5701 5701 5701 5701 5701 5701 5701 5701 5701 5701 5701 5701 5701 5701 5701 5701 5701 5701 5701 5701 5701 5701 5701 5701 5701 5701 5701 5701 5701 5701 5701 5701 5701 5701 5701 5701 5701 5701 5701 5701 5701 5701 5701 5701 5701 5701 5701 5701 5701 5701 5701 5701 5701 5701 5701 5701 5701 5701 5701 5701 5701 5701 5701 5701 5701 5701 5701 5701 5701 5701 5701 5701 5701 5701 5701 5701 5701 5701 5701 5701 5701 5701 5701 5701 5701 5701 5701 5701 5701 5701 5701 5701 5701 5701 5701 5701 5701 5701 5701 5701 5701 5701 5701 5701 5701 5701 5701 5701 5701 5701 5701 5701 5701 5701 5701 5701 5701 5701 5701 5701 5701 5701 5701 5701 5701 5701 5701 5701 5701 5701 5701 5701 5701 5701 5701 5701 5701 5701 5701 5701 5701 5701 5701 5701 5701 5701 5701 5701 5701 5701 5701 5701 5701 5701 5701 5701 5701 5701 5701 5701 5701 5701 5701 5701 5701 5701 5701 5701 5701 5701 5701 5701 5701 5701 5701 5701 5701 5701 5701 5701 5701 5701 5701 5701 5701 5701 5701 5701 5701 5701 5701 5701 5701 5701 5701 5701 5701 5701 5701 5701 5701 5701 5701 5701 5701 5701 5701 5701 5701 5701 5701 5701 5701 5701 5701 5701 5701 5701 5701 5701 5701 5701 5701 5701 5701 5701 5701 5701 5701 5701 5701 5701 5701 5701 5701 5701 5701 5701 5701 5701 5701 5701 5701 5701 5701 5701 5701 5701 5701 5701 5701 5701 5701 5701 5701 5701 5701 5701 5701 5701 5701 5701 5701 5701 5701 5701 5701 5701 5701 5701 5701 5701 5701 5701 5701 5701 5701 5701 5701 5701 5701 5701 5701 5701 5701 5701 5701 5701 5701 5701 5701 5701 5701 5701 5701 5701 5701 5701 5701 5701 5701 5701 5701 5701 5701 5701 5701 5701 5701 5701 5701 5701 5701 5701 5701 5701 5701 5701 5701 5701 5701 5701 5701 5701 5701 5701 5701 5701 5701 5701 5701 5701 5701 5701 5701 5701 5701 5701 5701 5701 5701 5701 5701 5701 5701 5701 5701 5701 5701 5701 5701 5701 5701 5701 5701 5701 5701 5701 5701 5701 5701 5701 5701 5701 5701 5701 5701 5701 5701 5701 5701 5701 5701 5701 5701 5701 5701 5701 5701 5701 5701 5701 5701 5701 5701 5701 5701 5701 5701 5701 5701 5701 5701 5701 5701 5701 5701 5701 5701 5701 5701 5701 5701 5701 5701 5701 5701 5701 5701 5701 5701 5701 5701 5701 5701 5701 5701 5701 5701 5701 5701 5701 5701 5701 5701 5701 5701 5701 5701 5701 5701 5701 5701 5701 5701 5701 